\ENCODING=ISO-8859-1
\Problem name: IloCplex

Minimize
 obj: 823 x_20 + 83 x_21 + 845 x_22 + 856 x_23 + 78 x_24 + 637 x_25 + 573 x_26
      + 864 x_27 + 307 x_28 + 494 x_29 + 314 x_30 + 220 x_31 + 653 x_32
      + 559 x_33 + 301 x_34 + 528 x_35 + 89 x_36 + 197 x_37 + 392 x_38
      + 578 x_39 + 841 x_40 + 153 x_41 + 129 x_42 + 418 x_43 + 694 x_44
      + 588 x_45 + 981 x_46 + 573 x_47 + 412 x_48 + 414 x_49 + 702 x_50
      + 235 x_51 + 498 x_52 + 548 x_53 + 91 x_54 + 577 x_55 + 185 x_56
      + 665 x_57 + 442 x_58 + 493 x_59 + 159 x_60 + 756 x_61 + 713 x_62
      + 813 x_63 + 315 x_64
Subject To
 c1:   y_01 + y_10 - x_0  = 0
 c2:   y_02 + y_20 - x_1  = 0
 c3:   y_03 + y_30 - x_2  = 0
 c4:   y_04 + y_40 - x_3  = 0
 c5:   y_05 + y_50 - x_4  = 0
 c6:   y_06 + y_60 - x_5  = 0
 c7:   y_07 + y_70 - x_6  = 0
 c8:   y_08 + y_80 - x_7  = 0
 c9:   y_09 + y_90 - x_8  = 0
 c10:  y_010 + y_100 - x_9  = 0
 c11:  y_011 + y_110 - x_10  = 0
 c12:  y_012 + y_120 - x_11  = 0
 c13:  y_013 + y_130 - x_12  = 0
 c14:  y_014 + y_140 - x_13  = 0
 c15:  y_015 + y_150 - x_14  = 0
 c16:  y_016 + y_160 - x_15  = 0
 c17:  y_017 + y_170 - x_16  = 0
 c18:  y_018 + y_180 - x_17  = 0
 c19:  y_019 + y_190 - x_18  = 0
 c20:  y_020 + y_200 - x_19  = 0
 c21:  y_12 + y_21 - x_20  = 0
 c22:  y_13 + y_31 - x_21  = 0
 c23:  y_14 + y_41 - x_22  = 0
 c24:  y_15 + y_51 - x_23  = 0
 c25:  y_16 + y_61 - x_24  = 0
 c26:  y_17 + y_71 - x_25  = 0
 c27:  y_18 + y_81 - x_26  = 0
 c28:  y_115 + y_151 - x_27  = 0
 c29:  y_119 + y_191 - x_28  = 0
 c30:  y_218 + y_182 - x_29  = 0
 c31:  y_34 + y_43 - x_30  = 0
 c32:  y_47 + y_74 - x_31  = 0
 c33:  y_412 + y_124 - x_32  = 0
 c34:  y_415 + y_154 - x_33  = 0
 c35:  y_57 + y_75 - x_34  = 0
 c36:  y_516 + y_165 - x_35  = 0
 c37:  y_517 + y_175 - x_36  = 0
 c38:  y_519 + y_195 - x_37  = 0
 c39:  y_69 + y_96 - x_38  = 0
 c40:  y_617 + y_176 - x_39  = 0
 c41:  y_78 + y_87 - x_40  = 0
 c42:  y_711 + y_117 - x_41  = 0
 c43:  y_713 + y_137 - x_42  = 0
 c44:  y_718 + y_187 - x_43  = 0
 c45:  y_814 + y_148 - x_44  = 0
 c46:  y_819 + y_198 - x_45  = 0
 c47:  y_910 + y_109 - x_46  = 0
 c48:  y_911 + y_119 - x_47  = 0
 c49:  y_915 + y_159 - x_48  = 0
 c50:  y_1016 + y_1610 - x_49  = 0
 c51:  y_1017 + y_1710 - x_50  = 0
 c52:  y_1116 + y_1611 - x_51  = 0
 c53:  y_1118 + y_1811 - x_52  = 0
 c54:  y_1315 + y_1513 - x_53  = 0
 c55:  y_1318 + y_1813 - x_54  = 0
 c56:  y_1518 + y_1815 - x_55  = 0
 c57:  y_1519 + y_1915 - x_56  = 0
 c58:  y_1520 + y_2015 - x_57  = 0
 c59:  y_1617 + y_1716 - x_58  = 0
 c60:  y_1619 + y_1916 - x_59  = 0
 c61:  y_1719 + y_1917 - x_60  = 0
 c62:  y_1720 + y_2017 - x_61  = 0
 c63:  y_1819 + y_1918 - x_62  = 0
 c64:  y_1820 + y_2018 - x_63  = 0
 c65:  y_1920 + y_2019 - x_64  = 0
 c66:  y_210 + y_021 - x_65  = 0
 c67:  y_211 + y_121 - x_66  = 0
 c68:  y_212 + y_221 - x_67  = 0
 c69:  y_213 + y_321 - x_68  = 0
 c70:  y_214 + y_421 - x_69  = 0
 c71:  y_215 + y_521 - x_70  = 0
 c72:  y_216 + y_621 - x_71  = 0
 c73:  y_217 + y_721 - x_72  = 0
 c74:  y_218 + y_821 - x_73  = 0
 c75:  y_219 + y_921 - x_74  = 0
 c76:  y_2110 + y_1021 - x_75  = 0
 c77:  y_2111 + y_1121 - x_76  = 0
 c78:  y_2112 + y_1221 - x_77  = 0
 c79:  y_2113 + y_1321 - x_78  = 0
 c80:  y_2114 + y_1421 - x_79  = 0
 c81:  y_2115 + y_1521 - x_80  = 0
 c82:  y_2116 + y_1621 - x_81  = 0
 c83:  y_2117 + y_1721 - x_82  = 0
 c84:  y_2118 + y_1821 - x_83  = 0
 c85:  y_2119 + y_1921 - x_84  = 0
 c86:  y_2120 + y_2021 - x_85  = 0
 c87:  f_10 - f_01 + f_20 - f_02 + f_30 - f_03 + f_40 - f_04 + f_50 - f_05
       + f_60 - f_06 + f_70 - f_07 + f_80 - f_08 + f_90 - f_09 + f_100 - f_010
       + f_110 - f_011 + f_120 - f_012 + f_130 - f_013 + f_140 - f_014 + f_150
       - f_015 + f_160 - f_016 + f_170 - f_017 + f_180 - f_018 + f_190 - f_019
       + f_200 - f_020 + f_210 - f_021 <= 1
 c88:  f_210 - f_021 <= 1
 c89:  - f_10 + f_01 + f_21 - f_12 + f_31 - f_13 + f_41 - f_14 + f_51 - f_15
       + f_61 - f_16 + f_71 - f_17 + f_81 - f_18 + f_151 - f_115 + f_191
       - f_119 + f_211 - f_121 <= 1
 c90:  - f_10 + f_01 + f_210 - f_021 + f_211 - f_121 <= 1
 c91:  - f_20 + f_02 - f_21 + f_12 + f_182 - f_218 + f_212 - f_221 <= 1
 c92:  - f_10 + f_01 - f_20 + f_02 + f_210 - f_021 - f_21 + f_12 + f_211
       - f_121 + f_212 - f_221 <= 1
 c93:  - f_30 + f_03 - f_31 + f_13 + f_43 - f_34 + f_213 - f_321 <= 1
 c94:  - f_10 + f_01 - f_20 + f_02 - f_30 + f_03 + f_210 - f_021 - f_21 + f_12
       - f_31 + f_13 + f_211 - f_121 + f_212 - f_221 + f_213 - f_321 <= 1
 c95:  - f_40 + f_04 - f_41 + f_14 - f_43 + f_34 + f_74 - f_47 + f_124 - f_412
       + f_154 - f_415 + f_214 - f_421 <= 1
 c96:  - f_10 + f_01 - f_20 + f_02 - f_30 + f_03 - f_40 + f_04 + f_210 - f_021
       - f_21 + f_12 - f_31 + f_13 - f_41 + f_14 + f_211 - f_121 + f_212
       - f_221 - f_43 + f_34 + f_213 - f_321 + f_214 - f_421 <= 1
 c97:  - f_50 + f_05 - f_51 + f_15 + f_75 - f_57 + f_165 - f_516 + f_175
       - f_517 + f_195 - f_519 + f_215 - f_521 <= 1
 c98:  - f_10 + f_01 - f_20 + f_02 - f_30 + f_03 - f_40 + f_04 - f_50 + f_05
       + f_210 - f_021 - f_21 + f_12 - f_31 + f_13 - f_41 + f_14 - f_51 + f_15
       + f_211 - f_121 + f_212 - f_221 - f_43 + f_34 + f_213 - f_321 + f_214
       - f_421 + f_215 - f_521 <= 1
 c99:  - f_60 + f_06 - f_61 + f_16 + f_96 - f_69 + f_176 - f_617 + f_216
       - f_621 <= 1
 c100: - f_10 + f_01 - f_20 + f_02 - f_30 + f_03 - f_40 + f_04 - f_50 + f_05
       - f_60 + f_06 + f_210 - f_021 - f_21 + f_12 - f_31 + f_13 - f_41 + f_14
       - f_51 + f_15 - f_61 + f_16 + f_211 - f_121 + f_212 - f_221 - f_43
       + f_34 + f_213 - f_321 + f_214 - f_421 + f_215 - f_521 + f_216 - f_621
       <= 1
 c101: - f_70 + f_07 - f_71 + f_17 - f_74 + f_47 - f_75 + f_57 + f_87 - f_78
       + f_117 - f_711 + f_137 - f_713 + f_187 - f_718 + f_217 - f_721 <= 1
 c102: - f_10 + f_01 - f_20 + f_02 - f_30 + f_03 - f_40 + f_04 - f_50 + f_05
       - f_60 + f_06 - f_70 + f_07 + f_210 - f_021 - f_21 + f_12 - f_31 + f_13
       - f_41 + f_14 - f_51 + f_15 - f_61 + f_16 - f_71 + f_17 + f_211 - f_121
       + f_212 - f_221 - f_43 + f_34 + f_213 - f_321 - f_74 + f_47 + f_214
       - f_421 - f_75 + f_57 + f_215 - f_521 + f_216 - f_621 + f_217 - f_721
       <= 1
 c103: - f_80 + f_08 - f_81 + f_18 - f_87 + f_78 + f_148 - f_814 + f_198
       - f_819 + f_218 - f_821 <= 1
 c104: - f_10 + f_01 - f_20 + f_02 - f_30 + f_03 - f_40 + f_04 - f_50 + f_05
       - f_60 + f_06 - f_70 + f_07 - f_80 + f_08 + f_210 - f_021 - f_21 + f_12
       - f_31 + f_13 - f_41 + f_14 - f_51 + f_15 - f_61 + f_16 - f_71 + f_17
       - f_81 + f_18 + f_211 - f_121 + f_212 - f_221 - f_43 + f_34 + f_213
       - f_321 - f_74 + f_47 + f_214 - f_421 - f_75 + f_57 + f_215 - f_521
       + f_216 - f_621 - f_87 + f_78 + f_217 - f_721 + f_218 - f_821 <= 1
 c105: - f_90 + f_09 - f_96 + f_69 + f_109 - f_910 + f_119 - f_911 + f_159
       - f_915 + f_219 - f_921 <= 1
 c106: - f_10 + f_01 - f_20 + f_02 - f_30 + f_03 - f_40 + f_04 - f_50 + f_05
       - f_60 + f_06 - f_70 + f_07 - f_80 + f_08 - f_90 + f_09 + f_210 - f_021
       - f_21 + f_12 - f_31 + f_13 - f_41 + f_14 - f_51 + f_15 - f_61 + f_16
       - f_71 + f_17 - f_81 + f_18 + f_211 - f_121 + f_212 - f_221 - f_43
       + f_34 + f_213 - f_321 - f_74 + f_47 + f_214 - f_421 - f_75 + f_57
       + f_215 - f_521 - f_96 + f_69 + f_216 - f_621 - f_87 + f_78 + f_217
       - f_721 + f_218 - f_821 + f_219 - f_921 <= 1
 c107: - f_100 + f_010 - f_109 + f_910 + f_1610 - f_1016 + f_1710 - f_1017
       + f_2110 - f_1021 <= 1
 c108: - f_10 + f_01 - f_20 + f_02 - f_30 + f_03 - f_40 + f_04 - f_50 + f_05
       - f_60 + f_06 - f_70 + f_07 - f_80 + f_08 - f_90 + f_09 - f_100 + f_010
       + f_210 - f_021 - f_21 + f_12 - f_31 + f_13 - f_41 + f_14 - f_51 + f_15
       - f_61 + f_16 - f_71 + f_17 - f_81 + f_18 + f_211 - f_121 + f_212
       - f_221 - f_43 + f_34 + f_213 - f_321 - f_74 + f_47 + f_214 - f_421
       - f_75 + f_57 + f_215 - f_521 - f_96 + f_69 + f_216 - f_621 - f_87
       + f_78 + f_217 - f_721 + f_218 - f_821 - f_109 + f_910 + f_219 - f_921
       + f_2110 - f_1021 <= 1
 c109: - f_110 + f_011 - f_117 + f_711 - f_119 + f_911 + f_1611 - f_1116
       + f_1811 - f_1118 + f_2111 - f_1121 <= 1
 c110: - f_10 + f_01 - f_20 + f_02 - f_30 + f_03 - f_40 + f_04 - f_50 + f_05
       - f_60 + f_06 - f_70 + f_07 - f_80 + f_08 - f_90 + f_09 - f_100 + f_010
       - f_110 + f_011 + f_210 - f_021 - f_21 + f_12 - f_31 + f_13 - f_41
       + f_14 - f_51 + f_15 - f_61 + f_16 - f_71 + f_17 - f_81 + f_18 + f_211
       - f_121 + f_212 - f_221 - f_43 + f_34 + f_213 - f_321 - f_74 + f_47
       + f_214 - f_421 - f_75 + f_57 + f_215 - f_521 - f_96 + f_69 + f_216
       - f_621 - f_87 + f_78 - f_117 + f_711 + f_217 - f_721 + f_218 - f_821
       - f_109 + f_910 - f_119 + f_911 + f_219 - f_921 + f_2110 - f_1021
       + f_2111 - f_1121 <= 1
 c111: - f_120 + f_012 - f_124 + f_412 + f_2112 - f_1221 <= 1
 c112: - f_10 + f_01 - f_20 + f_02 - f_30 + f_03 - f_40 + f_04 - f_50 + f_05
       - f_60 + f_06 - f_70 + f_07 - f_80 + f_08 - f_90 + f_09 - f_100 + f_010
       - f_110 + f_011 - f_120 + f_012 + f_210 - f_021 - f_21 + f_12 - f_31
       + f_13 - f_41 + f_14 - f_51 + f_15 - f_61 + f_16 - f_71 + f_17 - f_81
       + f_18 + f_211 - f_121 + f_212 - f_221 - f_43 + f_34 + f_213 - f_321
       - f_74 + f_47 - f_124 + f_412 + f_214 - f_421 - f_75 + f_57 + f_215
       - f_521 - f_96 + f_69 + f_216 - f_621 - f_87 + f_78 - f_117 + f_711
       + f_217 - f_721 + f_218 - f_821 - f_109 + f_910 - f_119 + f_911 + f_219
       - f_921 + f_2110 - f_1021 + f_2111 - f_1121 + f_2112 - f_1221 <= 1
 c113: - f_130 + f_013 - f_137 + f_713 + f_1513 - f_1315 + f_1813 - f_1318
       + f_2113 - f_1321 <= 1
 c114: - f_10 + f_01 - f_20 + f_02 - f_30 + f_03 - f_40 + f_04 - f_50 + f_05
       - f_60 + f_06 - f_70 + f_07 - f_80 + f_08 - f_90 + f_09 - f_100 + f_010
       - f_110 + f_011 - f_120 + f_012 - f_130 + f_013 + f_210 - f_021 - f_21
       + f_12 - f_31 + f_13 - f_41 + f_14 - f_51 + f_15 - f_61 + f_16 - f_71
       + f_17 - f_81 + f_18 + f_211 - f_121 + f_212 - f_221 - f_43 + f_34
       + f_213 - f_321 - f_74 + f_47 - f_124 + f_412 + f_214 - f_421 - f_75
       + f_57 + f_215 - f_521 - f_96 + f_69 + f_216 - f_621 - f_87 + f_78
       - f_117 + f_711 - f_137 + f_713 + f_217 - f_721 + f_218 - f_821 - f_109
       + f_910 - f_119 + f_911 + f_219 - f_921 + f_2110 - f_1021 + f_2111
       - f_1121 + f_2112 - f_1221 + f_2113 - f_1321 <= 1
 c115: - f_140 + f_014 - f_148 + f_814 + f_2114 - f_1421 <= 1
 c116: - f_10 + f_01 - f_20 + f_02 - f_30 + f_03 - f_40 + f_04 - f_50 + f_05
       - f_60 + f_06 - f_70 + f_07 - f_80 + f_08 - f_90 + f_09 - f_100 + f_010
       - f_110 + f_011 - f_120 + f_012 - f_130 + f_013 - f_140 + f_014 + f_210
       - f_021 - f_21 + f_12 - f_31 + f_13 - f_41 + f_14 - f_51 + f_15 - f_61
       + f_16 - f_71 + f_17 - f_81 + f_18 + f_211 - f_121 + f_212 - f_221
       - f_43 + f_34 + f_213 - f_321 - f_74 + f_47 - f_124 + f_412 + f_214
       - f_421 - f_75 + f_57 + f_215 - f_521 - f_96 + f_69 + f_216 - f_621
       - f_87 + f_78 - f_117 + f_711 - f_137 + f_713 + f_217 - f_721 - f_148
       + f_814 + f_218 - f_821 - f_109 + f_910 - f_119 + f_911 + f_219 - f_921
       + f_2110 - f_1021 + f_2111 - f_1121 + f_2112 - f_1221 + f_2113 - f_1321
       + f_2114 - f_1421 <= 1
 c117: - f_150 + f_015 - f_151 + f_115 - f_154 + f_415 - f_159 + f_915 - f_1513
       + f_1315 + f_1815 - f_1518 + f_1915 - f_1519 + f_2015 - f_1520 + f_2115
       - f_1521 <= 1
 c118: - f_10 + f_01 - f_20 + f_02 - f_30 + f_03 - f_40 + f_04 - f_50 + f_05
       - f_60 + f_06 - f_70 + f_07 - f_80 + f_08 - f_90 + f_09 - f_100 + f_010
       - f_110 + f_011 - f_120 + f_012 - f_130 + f_013 - f_140 + f_014 - f_150
       + f_015 + f_210 - f_021 - f_21 + f_12 - f_31 + f_13 - f_41 + f_14 - f_51
       + f_15 - f_61 + f_16 - f_71 + f_17 - f_81 + f_18 - f_151 + f_115 + f_211
       - f_121 + f_212 - f_221 - f_43 + f_34 + f_213 - f_321 - f_74 + f_47
       - f_124 + f_412 - f_154 + f_415 + f_214 - f_421 - f_75 + f_57 + f_215
       - f_521 - f_96 + f_69 + f_216 - f_621 - f_87 + f_78 - f_117 + f_711
       - f_137 + f_713 + f_217 - f_721 - f_148 + f_814 + f_218 - f_821 - f_109
       + f_910 - f_119 + f_911 - f_159 + f_915 + f_219 - f_921 + f_2110
       - f_1021 + f_2111 - f_1121 + f_2112 - f_1221 - f_1513 + f_1315 + f_2113
       - f_1321 + f_2114 - f_1421 + f_2115 - f_1521 <= 1
 c119: - f_160 + f_016 - f_165 + f_516 - f_1610 + f_1016 - f_1611 + f_1116
       + f_1716 - f_1617 + f_1916 - f_1619 + f_2116 - f_1621 <= 1
 c120: - f_10 + f_01 - f_20 + f_02 - f_30 + f_03 - f_40 + f_04 - f_50 + f_05
       - f_60 + f_06 - f_70 + f_07 - f_80 + f_08 - f_90 + f_09 - f_100 + f_010
       - f_110 + f_011 - f_120 + f_012 - f_130 + f_013 - f_140 + f_014 - f_150
       + f_015 - f_160 + f_016 + f_210 - f_021 - f_21 + f_12 - f_31 + f_13
       - f_41 + f_14 - f_51 + f_15 - f_61 + f_16 - f_71 + f_17 - f_81 + f_18
       - f_151 + f_115 + f_211 - f_121 + f_212 - f_221 - f_43 + f_34 + f_213
       - f_321 - f_74 + f_47 - f_124 + f_412 - f_154 + f_415 + f_214 - f_421
       - f_75 + f_57 - f_165 + f_516 + f_215 - f_521 - f_96 + f_69 + f_216
       - f_621 - f_87 + f_78 - f_117 + f_711 - f_137 + f_713 + f_217 - f_721
       - f_148 + f_814 + f_218 - f_821 - f_109 + f_910 - f_119 + f_911 - f_159
       + f_915 + f_219 - f_921 - f_1610 + f_1016 + f_2110 - f_1021 - f_1611
       + f_1116 + f_2111 - f_1121 + f_2112 - f_1221 - f_1513 + f_1315 + f_2113
       - f_1321 + f_2114 - f_1421 + f_2115 - f_1521 + f_2116 - f_1621 <= 1
 c121: - f_170 + f_017 - f_175 + f_517 - f_176 + f_617 - f_1710 + f_1017
       - f_1716 + f_1617 + f_1917 - f_1719 + f_2017 - f_1720 + f_2117 - f_1721
       <= 1
 c122: - f_10 + f_01 - f_20 + f_02 - f_30 + f_03 - f_40 + f_04 - f_50 + f_05
       - f_60 + f_06 - f_70 + f_07 - f_80 + f_08 - f_90 + f_09 - f_100 + f_010
       - f_110 + f_011 - f_120 + f_012 - f_130 + f_013 - f_140 + f_014 - f_150
       + f_015 - f_160 + f_016 - f_170 + f_017 + f_210 - f_021 - f_21 + f_12
       - f_31 + f_13 - f_41 + f_14 - f_51 + f_15 - f_61 + f_16 - f_71 + f_17
       - f_81 + f_18 - f_151 + f_115 + f_211 - f_121 + f_212 - f_221 - f_43
       + f_34 + f_213 - f_321 - f_74 + f_47 - f_124 + f_412 - f_154 + f_415
       + f_214 - f_421 - f_75 + f_57 - f_165 + f_516 - f_175 + f_517 + f_215
       - f_521 - f_96 + f_69 - f_176 + f_617 + f_216 - f_621 - f_87 + f_78
       - f_117 + f_711 - f_137 + f_713 + f_217 - f_721 - f_148 + f_814 + f_218
       - f_821 - f_109 + f_910 - f_119 + f_911 - f_159 + f_915 + f_219 - f_921
       - f_1610 + f_1016 - f_1710 + f_1017 + f_2110 - f_1021 - f_1611 + f_1116
       + f_2111 - f_1121 + f_2112 - f_1221 - f_1513 + f_1315 + f_2113 - f_1321
       + f_2114 - f_1421 + f_2115 - f_1521 - f_1716 + f_1617 + f_2116 - f_1621
       + f_2117 - f_1721 <= 1
 c123: - f_180 + f_018 - f_182 + f_218 - f_187 + f_718 - f_1811 + f_1118
       - f_1813 + f_1318 - f_1815 + f_1518 + f_1918 - f_1819 + f_2018 - f_1820
       + f_2118 - f_1821 <= 1
 c124: - f_10 + f_01 - f_20 + f_02 - f_30 + f_03 - f_40 + f_04 - f_50 + f_05
       - f_60 + f_06 - f_70 + f_07 - f_80 + f_08 - f_90 + f_09 - f_100 + f_010
       - f_110 + f_011 - f_120 + f_012 - f_130 + f_013 - f_140 + f_014 - f_150
       + f_015 - f_160 + f_016 - f_170 + f_017 - f_180 + f_018 + f_210 - f_021
       - f_21 + f_12 - f_31 + f_13 - f_41 + f_14 - f_51 + f_15 - f_61 + f_16
       - f_71 + f_17 - f_81 + f_18 - f_151 + f_115 + f_211 - f_121 - f_182
       + f_218 + f_212 - f_221 - f_43 + f_34 + f_213 - f_321 - f_74 + f_47
       - f_124 + f_412 - f_154 + f_415 + f_214 - f_421 - f_75 + f_57 - f_165
       + f_516 - f_175 + f_517 + f_215 - f_521 - f_96 + f_69 - f_176 + f_617
       + f_216 - f_621 - f_87 + f_78 - f_117 + f_711 - f_137 + f_713 - f_187
       + f_718 + f_217 - f_721 - f_148 + f_814 + f_218 - f_821 - f_109 + f_910
       - f_119 + f_911 - f_159 + f_915 + f_219 - f_921 - f_1610 + f_1016
       - f_1710 + f_1017 + f_2110 - f_1021 - f_1611 + f_1116 - f_1811 + f_1118
       + f_2111 - f_1121 + f_2112 - f_1221 - f_1513 + f_1315 - f_1813 + f_1318
       + f_2113 - f_1321 + f_2114 - f_1421 - f_1815 + f_1518 + f_2115 - f_1521
       - f_1716 + f_1617 + f_2116 - f_1621 + f_2117 - f_1721 + f_2118 - f_1821
       <= 1
 c125: - f_190 + f_019 - f_191 + f_119 - f_195 + f_519 - f_198 + f_819 - f_1915
       + f_1519 - f_1916 + f_1619 - f_1917 + f_1719 - f_1918 + f_1819 + f_2019
       - f_1920 + f_2119 - f_1921 <= 1
 c126: - f_10 + f_01 - f_20 + f_02 - f_30 + f_03 - f_40 + f_04 - f_50 + f_05
       - f_60 + f_06 - f_70 + f_07 - f_80 + f_08 - f_90 + f_09 - f_100 + f_010
       - f_110 + f_011 - f_120 + f_012 - f_130 + f_013 - f_140 + f_014 - f_150
       + f_015 - f_160 + f_016 - f_170 + f_017 - f_180 + f_018 - f_190 + f_019
       + f_210 - f_021 - f_21 + f_12 - f_31 + f_13 - f_41 + f_14 - f_51 + f_15
       - f_61 + f_16 - f_71 + f_17 - f_81 + f_18 - f_151 + f_115 - f_191
       + f_119 + f_211 - f_121 - f_182 + f_218 + f_212 - f_221 - f_43 + f_34
       + f_213 - f_321 - f_74 + f_47 - f_124 + f_412 - f_154 + f_415 + f_214
       - f_421 - f_75 + f_57 - f_165 + f_516 - f_175 + f_517 - f_195 + f_519
       + f_215 - f_521 - f_96 + f_69 - f_176 + f_617 + f_216 - f_621 - f_87
       + f_78 - f_117 + f_711 - f_137 + f_713 - f_187 + f_718 + f_217 - f_721
       - f_148 + f_814 - f_198 + f_819 + f_218 - f_821 - f_109 + f_910 - f_119
       + f_911 - f_159 + f_915 + f_219 - f_921 - f_1610 + f_1016 - f_1710
       + f_1017 + f_2110 - f_1021 - f_1611 + f_1116 - f_1811 + f_1118 + f_2111
       - f_1121 + f_2112 - f_1221 - f_1513 + f_1315 - f_1813 + f_1318 + f_2113
       - f_1321 + f_2114 - f_1421 - f_1815 + f_1518 - f_1915 + f_1519 + f_2115
       - f_1521 - f_1716 + f_1617 - f_1916 + f_1619 + f_2116 - f_1621 - f_1917
       + f_1719 + f_2117 - f_1721 - f_1918 + f_1819 + f_2118 - f_1821 + f_2119
       - f_1921 <= 1
 c127: - f_200 + f_020 - f_2015 + f_1520 - f_2017 + f_1720 - f_2018 + f_1820
       - f_2019 + f_1920 + f_2120 - f_2021 <= 1
 c128: - f_10 + f_01 - f_20 + f_02 - f_30 + f_03 - f_40 + f_04 - f_50 + f_05
       - f_60 + f_06 - f_70 + f_07 - f_80 + f_08 - f_90 + f_09 - f_100 + f_010
       - f_110 + f_011 - f_120 + f_012 - f_130 + f_013 - f_140 + f_014 - f_150
       + f_015 - f_160 + f_016 - f_170 + f_017 - f_180 + f_018 - f_190 + f_019
       - f_200 + f_020 + f_210 - f_021 - f_21 + f_12 - f_31 + f_13 - f_41
       + f_14 - f_51 + f_15 - f_61 + f_16 - f_71 + f_17 - f_81 + f_18 - f_151
       + f_115 - f_191 + f_119 + f_211 - f_121 - f_182 + f_218 + f_212 - f_221
       - f_43 + f_34 + f_213 - f_321 - f_74 + f_47 - f_124 + f_412 - f_154
       + f_415 + f_214 - f_421 - f_75 + f_57 - f_165 + f_516 - f_175 + f_517
       - f_195 + f_519 + f_215 - f_521 - f_96 + f_69 - f_176 + f_617 + f_216
       - f_621 - f_87 + f_78 - f_117 + f_711 - f_137 + f_713 - f_187 + f_718
       + f_217 - f_721 - f_148 + f_814 - f_198 + f_819 + f_218 - f_821 - f_109
       + f_910 - f_119 + f_911 - f_159 + f_915 + f_219 - f_921 - f_1610
       + f_1016 - f_1710 + f_1017 + f_2110 - f_1021 - f_1611 + f_1116 - f_1811
       + f_1118 + f_2111 - f_1121 + f_2112 - f_1221 - f_1513 + f_1315 - f_1813
       + f_1318 + f_2113 - f_1321 + f_2114 - f_1421 - f_1815 + f_1518 - f_1915
       + f_1519 - f_2015 + f_1520 + f_2115 - f_1521 - f_1716 + f_1617 - f_1916
       + f_1619 + f_2116 - f_1621 - f_1917 + f_1719 - f_2017 + f_1720 + f_2117
       - f_1721 - f_1918 + f_1819 - f_2018 + f_1820 + f_2118 - f_1821 - f_2019
       + f_1920 + f_2119 - f_1921 + f_2120 - f_2021 <= 1
 c129: x_65 + x_66 + x_67 + x_68 + x_69 + x_70 + x_71 + x_72 + x_73 + x_74
       + x_75 + x_76 + x_77 + x_78 + x_79 + x_80 + x_81 + x_82 + x_83 + x_84
       + x_85  = 1
 c130: f_210 + f_211 + f_212 + f_213 + f_214 + f_215 + f_216 + f_217 + f_218
       + f_219 + f_2110 + f_2111 + f_2112 + f_2113 + f_2114 + f_2115 + f_2116
       + f_2117 + f_2118 + f_2119 + f_2120  = 4
 c131: f_01 >= 0
 c132: - 4 y_01 + f_01 <= 0
 c133: f_10 >= 0
 c134: - 4 y_10 + f_10 <= 0
 c135: f_02 >= 0
 c136: - 4 y_02 + f_02 <= 0
 c137: f_20 >= 0
 c138: - 4 y_20 + f_20 <= 0
 c139: f_03 >= 0
 c140: - 4 y_03 + f_03 <= 0
 c141: f_30 >= 0
 c142: - 4 y_30 + f_30 <= 0
 c143: f_04 >= 0
 c144: - 4 y_04 + f_04 <= 0
 c145: f_40 >= 0
 c146: - 4 y_40 + f_40 <= 0
 c147: f_05 >= 0
 c148: - 4 y_05 + f_05 <= 0
 c149: f_50 >= 0
 c150: - 4 y_50 + f_50 <= 0
 c151: f_06 >= 0
 c152: - 4 y_06 + f_06 <= 0
 c153: f_60 >= 0
 c154: - 4 y_60 + f_60 <= 0
 c155: f_07 >= 0
 c156: - 4 y_07 + f_07 <= 0
 c157: f_70 >= 0
 c158: - 4 y_70 + f_70 <= 0
 c159: f_08 >= 0
 c160: - 4 y_08 + f_08 <= 0
 c161: f_80 >= 0
 c162: - 4 y_80 + f_80 <= 0
 c163: f_09 >= 0
 c164: - 4 y_09 + f_09 <= 0
 c165: f_90 >= 0
 c166: - 4 y_90 + f_90 <= 0
 c167: f_010 >= 0
 c168: - 4 y_010 + f_010 <= 0
 c169: f_100 >= 0
 c170: - 4 y_100 + f_100 <= 0
 c171: f_011 >= 0
 c172: - 4 y_011 + f_011 <= 0
 c173: f_110 >= 0
 c174: - 4 y_110 + f_110 <= 0
 c175: f_012 >= 0
 c176: - 4 y_012 + f_012 <= 0
 c177: f_120 >= 0
 c178: - 4 y_120 + f_120 <= 0
 c179: f_013 >= 0
 c180: - 4 y_013 + f_013 <= 0
 c181: f_130 >= 0
 c182: - 4 y_130 + f_130 <= 0
 c183: f_014 >= 0
 c184: - 4 y_014 + f_014 <= 0
 c185: f_140 >= 0
 c186: - 4 y_140 + f_140 <= 0
 c187: f_015 >= 0
 c188: - 4 y_015 + f_015 <= 0
 c189: f_150 >= 0
 c190: - 4 y_150 + f_150 <= 0
 c191: f_016 >= 0
 c192: - 4 y_016 + f_016 <= 0
 c193: f_160 >= 0
 c194: - 4 y_160 + f_160 <= 0
 c195: f_017 >= 0
 c196: - 4 y_017 + f_017 <= 0
 c197: f_170 >= 0
 c198: - 4 y_170 + f_170 <= 0
 c199: f_018 >= 0
 c200: - 4 y_018 + f_018 <= 0
 c201: f_180 >= 0
 c202: - 4 y_180 + f_180 <= 0
 c203: f_019 >= 0
 c204: - 4 y_019 + f_019 <= 0
 c205: f_190 >= 0
 c206: - 4 y_190 + f_190 <= 0
 c207: f_020 >= 0
 c208: - 4 y_020 + f_020 <= 0
 c209: f_200 >= 0
 c210: - 4 y_200 + f_200 <= 0
 c211: f_12 >= 0
 c212: - 4 y_12 + f_12 <= 0
 c213: f_21 >= 0
 c214: - 4 y_21 + f_21 <= 0
 c215: f_13 >= 0
 c216: - 4 y_13 + f_13 <= 0
 c217: f_31 >= 0
 c218: - 4 y_31 + f_31 <= 0
 c219: f_14 >= 0
 c220: - 4 y_14 + f_14 <= 0
 c221: f_41 >= 0
 c222: - 4 y_41 + f_41 <= 0
 c223: f_15 >= 0
 c224: - 4 y_15 + f_15 <= 0
 c225: f_51 >= 0
 c226: - 4 y_51 + f_51 <= 0
 c227: f_16 >= 0
 c228: - 4 y_16 + f_16 <= 0
 c229: f_61 >= 0
 c230: - 4 y_61 + f_61 <= 0
 c231: f_17 >= 0
 c232: - 4 y_17 + f_17 <= 0
 c233: f_71 >= 0
 c234: - 4 y_71 + f_71 <= 0
 c235: f_18 >= 0
 c236: - 4 y_18 + f_18 <= 0
 c237: f_81 >= 0
 c238: - 4 y_81 + f_81 <= 0
 c239: f_115 >= 0
 c240: - 4 y_115 + f_115 <= 0
 c241: f_151 >= 0
 c242: - 4 y_151 + f_151 <= 0
 c243: f_119 >= 0
 c244: - 4 y_119 + f_119 <= 0
 c245: f_191 >= 0
 c246: - 4 y_191 + f_191 <= 0
 c247: f_218 >= 0
 c248: - 4 y_218 + f_218 <= 0
 c249: f_182 >= 0
 c250: - 4 y_182 + f_182 <= 0
 c251: f_34 >= 0
 c252: - 4 y_34 + f_34 <= 0
 c253: f_43 >= 0
 c254: - 4 y_43 + f_43 <= 0
 c255: f_47 >= 0
 c256: - 4 y_47 + f_47 <= 0
 c257: f_74 >= 0
 c258: - 4 y_74 + f_74 <= 0
 c259: f_412 >= 0
 c260: - 4 y_412 + f_412 <= 0
 c261: f_124 >= 0
 c262: - 4 y_124 + f_124 <= 0
 c263: f_415 >= 0
 c264: - 4 y_415 + f_415 <= 0
 c265: f_154 >= 0
 c266: - 4 y_154 + f_154 <= 0
 c267: f_57 >= 0
 c268: - 4 y_57 + f_57 <= 0
 c269: f_75 >= 0
 c270: - 4 y_75 + f_75 <= 0
 c271: f_516 >= 0
 c272: - 4 y_516 + f_516 <= 0
 c273: f_165 >= 0
 c274: - 4 y_165 + f_165 <= 0
 c275: f_517 >= 0
 c276: - 4 y_517 + f_517 <= 0
 c277: f_175 >= 0
 c278: - 4 y_175 + f_175 <= 0
 c279: f_519 >= 0
 c280: - 4 y_519 + f_519 <= 0
 c281: f_195 >= 0
 c282: - 4 y_195 + f_195 <= 0
 c283: f_69 >= 0
 c284: - 4 y_69 + f_69 <= 0
 c285: f_96 >= 0
 c286: - 4 y_96 + f_96 <= 0
 c287: f_617 >= 0
 c288: - 4 y_617 + f_617 <= 0
 c289: f_176 >= 0
 c290: - 4 y_176 + f_176 <= 0
 c291: f_78 >= 0
 c292: - 4 y_78 + f_78 <= 0
 c293: f_87 >= 0
 c294: - 4 y_87 + f_87 <= 0
 c295: f_711 >= 0
 c296: - 4 y_711 + f_711 <= 0
 c297: f_117 >= 0
 c298: - 4 y_117 + f_117 <= 0
 c299: f_713 >= 0
 c300: - 4 y_713 + f_713 <= 0
 c301: f_137 >= 0
 c302: - 4 y_137 + f_137 <= 0
 c303: f_718 >= 0
 c304: - 4 y_718 + f_718 <= 0
 c305: f_187 >= 0
 c306: - 4 y_187 + f_187 <= 0
 c307: f_814 >= 0
 c308: - 4 y_814 + f_814 <= 0
 c309: f_148 >= 0
 c310: - 4 y_148 + f_148 <= 0
 c311: f_819 >= 0
 c312: - 4 y_819 + f_819 <= 0
 c313: f_198 >= 0
 c314: - 4 y_198 + f_198 <= 0
 c315: f_910 >= 0
 c316: - 4 y_910 + f_910 <= 0
 c317: f_109 >= 0
 c318: - 4 y_109 + f_109 <= 0
 c319: f_911 >= 0
 c320: - 4 y_911 + f_911 <= 0
 c321: f_119 >= 0
 c322: - 4 y_119 + f_119 <= 0
 c323: f_915 >= 0
 c324: - 4 y_915 + f_915 <= 0
 c325: f_159 >= 0
 c326: - 4 y_159 + f_159 <= 0
 c327: f_1016 >= 0
 c328: - 4 y_1016 + f_1016 <= 0
 c329: f_1610 >= 0
 c330: - 4 y_1610 + f_1610 <= 0
 c331: f_1017 >= 0
 c332: - 4 y_1017 + f_1017 <= 0
 c333: f_1710 >= 0
 c334: - 4 y_1710 + f_1710 <= 0
 c335: f_1116 >= 0
 c336: - 4 y_1116 + f_1116 <= 0
 c337: f_1611 >= 0
 c338: - 4 y_1611 + f_1611 <= 0
 c339: f_1118 >= 0
 c340: - 4 y_1118 + f_1118 <= 0
 c341: f_1811 >= 0
 c342: - 4 y_1811 + f_1811 <= 0
 c343: f_1315 >= 0
 c344: - 4 y_1315 + f_1315 <= 0
 c345: f_1513 >= 0
 c346: - 4 y_1513 + f_1513 <= 0
 c347: f_1318 >= 0
 c348: - 4 y_1318 + f_1318 <= 0
 c349: f_1813 >= 0
 c350: - 4 y_1813 + f_1813 <= 0
 c351: f_1518 >= 0
 c352: - 4 y_1518 + f_1518 <= 0
 c353: f_1815 >= 0
 c354: - 4 y_1815 + f_1815 <= 0
 c355: f_1519 >= 0
 c356: - 4 y_1519 + f_1519 <= 0
 c357: f_1915 >= 0
 c358: - 4 y_1915 + f_1915 <= 0
 c359: f_1520 >= 0
 c360: - 4 y_1520 + f_1520 <= 0
 c361: f_2015 >= 0
 c362: - 4 y_2015 + f_2015 <= 0
 c363: f_1617 >= 0
 c364: - 4 y_1617 + f_1617 <= 0
 c365: f_1716 >= 0
 c366: - 4 y_1716 + f_1716 <= 0
 c367: f_1619 >= 0
 c368: - 4 y_1619 + f_1619 <= 0
 c369: f_1916 >= 0
 c370: - 4 y_1916 + f_1916 <= 0
 c371: f_1719 >= 0
 c372: - 4 y_1719 + f_1719 <= 0
 c373: f_1917 >= 0
 c374: - 4 y_1917 + f_1917 <= 0
 c375: f_1720 >= 0
 c376: - 4 y_1720 + f_1720 <= 0
 c377: f_2017 >= 0
 c378: - 4 y_2017 + f_2017 <= 0
 c379: f_1819 >= 0
 c380: - 4 y_1819 + f_1819 <= 0
 c381: f_1918 >= 0
 c382: - 4 y_1918 + f_1918 <= 0
 c383: f_1820 >= 0
 c384: - 4 y_1820 + f_1820 <= 0
 c385: f_2018 >= 0
 c386: - 4 y_2018 + f_2018 <= 0
 c387: f_1920 >= 0
 c388: - 4 y_1920 + f_1920 <= 0
 c389: f_2019 >= 0
 c390: - 4 y_2019 + f_2019 <= 0
 c391: f_210 >= 0
 c392: - 4 y_210 + f_210 <= 0
 c393: f_021 >= 0
 c394: - 4 y_021 + f_021 <= 0
 c395: f_211 >= 0
 c396: - 4 y_211 + f_211 <= 0
 c397: f_121 >= 0
 c398: - 4 y_121 + f_121 <= 0
 c399: f_212 >= 0
 c400: - 4 y_212 + f_212 <= 0
 c401: f_221 >= 0
 c402: - 4 y_221 + f_221 <= 0
 c403: f_213 >= 0
 c404: - 4 y_213 + f_213 <= 0
 c405: f_321 >= 0
 c406: - 4 y_321 + f_321 <= 0
 c407: f_214 >= 0
 c408: - 4 y_214 + f_214 <= 0
 c409: f_421 >= 0
 c410: - 4 y_421 + f_421 <= 0
 c411: f_215 >= 0
 c412: - 4 y_215 + f_215 <= 0
 c413: f_521 >= 0
 c414: - 4 y_521 + f_521 <= 0
 c415: f_216 >= 0
 c416: - 4 y_216 + f_216 <= 0
 c417: f_621 >= 0
 c418: - 4 y_621 + f_621 <= 0
 c419: f_217 >= 0
 c420: - 4 y_217 + f_217 <= 0
 c421: f_721 >= 0
 c422: - 4 y_721 + f_721 <= 0
 c423: f_218 >= 0
 c424: - 4 y_218 + f_218 <= 0
 c425: f_821 >= 0
 c426: - 4 y_821 + f_821 <= 0
 c427: f_219 >= 0
 c428: - 4 y_219 + f_219 <= 0
 c429: f_921 >= 0
 c430: - 4 y_921 + f_921 <= 0
 c431: f_2110 >= 0
 c432: - 4 y_2110 + f_2110 <= 0
 c433: f_1021 >= 0
 c434: - 4 y_1021 + f_1021 <= 0
 c435: f_2111 >= 0
 c436: - 4 y_2111 + f_2111 <= 0
 c437: f_1121 >= 0
 c438: - 4 y_1121 + f_1121 <= 0
 c439: f_2112 >= 0
 c440: - 4 y_2112 + f_2112 <= 0
 c441: f_1221 >= 0
 c442: - 4 y_1221 + f_1221 <= 0
 c443: f_2113 >= 0
 c444: - 4 y_2113 + f_2113 <= 0
 c445: f_1321 >= 0
 c446: - 4 y_1321 + f_1321 <= 0
 c447: f_2114 >= 0
 c448: - 4 y_2114 + f_2114 <= 0
 c449: f_1421 >= 0
 c450: - 4 y_1421 + f_1421 <= 0
 c451: f_2115 >= 0
 c452: - 4 y_2115 + f_2115 <= 0
 c453: f_1521 >= 0
 c454: - 4 y_1521 + f_1521 <= 0
 c455: f_2116 >= 0
 c456: - 4 y_2116 + f_2116 <= 0
 c457: f_1621 >= 0
 c458: - 4 y_1621 + f_1621 <= 0
 c459: f_2117 >= 0
 c460: - 4 y_2117 + f_2117 <= 0
 c461: f_1721 >= 0
 c462: - 4 y_1721 + f_1721 <= 0
 c463: f_2118 >= 0
 c464: - 4 y_2118 + f_2118 <= 0
 c465: f_1821 >= 0
 c466: - 4 y_1821 + f_1821 <= 0
 c467: f_2119 >= 0
 c468: - 4 y_2119 + f_2119 <= 0
 c469: f_1921 >= 0
 c470: - 4 y_1921 + f_1921 <= 0
 c471: f_2120 >= 0
 c472: - 4 y_2120 + f_2120 <= 0
 c473: f_2021 >= 0
 c474: - 4 y_2021 + f_2021 <= 0
Bounds
 0 <= y_01 <= 1
 0 <= y_10 <= 1
      x_0 >= 0
 0 <= y_02 <= 1
 0 <= y_20 <= 1
      x_1 >= 0
 0 <= y_03 <= 1
 0 <= y_30 <= 1
      x_2 >= 0
 0 <= y_04 <= 1
 0 <= y_40 <= 1
      x_3 >= 0
 0 <= y_05 <= 1
 0 <= y_50 <= 1
      x_4 >= 0
 0 <= y_06 <= 1
 0 <= y_60 <= 1
      x_5 >= 0
 0 <= y_07 <= 1
 0 <= y_70 <= 1
      x_6 >= 0
 0 <= y_08 <= 1
 0 <= y_80 <= 1
      x_7 >= 0
 0 <= y_09 <= 1
 0 <= y_90 <= 1
      x_8 >= 0
 0 <= y_010 <= 1
 0 <= y_100 <= 1
      x_9 >= 0
 0 <= y_011 <= 1
 0 <= y_110 <= 1
      x_10 >= 0
 0 <= y_012 <= 1
 0 <= y_120 <= 1
      x_11 >= 0
 0 <= y_013 <= 1
 0 <= y_130 <= 1
      x_12 >= 0
 0 <= y_014 <= 1
 0 <= y_140 <= 1
      x_13 >= 0
 0 <= y_015 <= 1
 0 <= y_150 <= 1
      x_14 >= 0
 0 <= y_016 <= 1
 0 <= y_160 <= 1
      x_15 >= 0
 0 <= y_017 <= 1
 0 <= y_170 <= 1
      x_16 >= 0
 0 <= y_018 <= 1
 0 <= y_180 <= 1
      x_17 >= 0
 0 <= y_019 <= 1
 0 <= y_190 <= 1
      x_18 >= 0
 0 <= y_020 <= 1
 0 <= y_200 <= 1
      x_19 >= 0
 0 <= y_12 <= 1
 0 <= y_21 <= 1
      x_20 >= 0
 0 <= y_13 <= 1
 0 <= y_31 <= 1
      x_21 >= 0
 0 <= y_14 <= 1
 0 <= y_41 <= 1
      x_22 >= 0
 0 <= y_15 <= 1
 0 <= y_51 <= 1
      x_23 >= 0
 0 <= y_16 <= 1
 0 <= y_61 <= 1
      x_24 >= 0
 0 <= y_17 <= 1
 0 <= y_71 <= 1
      x_25 >= 0
 0 <= y_18 <= 1
 0 <= y_81 <= 1
      x_26 >= 0
 0 <= y_115 <= 1
 0 <= y_151 <= 1
      x_27 >= 0
 0 <= y_119 <= 1
 0 <= y_191 <= 1
      x_28 >= 0
 0 <= y_218 <= 1
 0 <= y_182 <= 1
      x_29 >= 0
 0 <= y_34 <= 1
 0 <= y_43 <= 1
      x_30 >= 0
 0 <= y_47 <= 1
 0 <= y_74 <= 1
      x_31 >= 0
 0 <= y_412 <= 1
 0 <= y_124 <= 1
      x_32 >= 0
 0 <= y_415 <= 1
 0 <= y_154 <= 1
      x_33 >= 0
 0 <= y_57 <= 1
 0 <= y_75 <= 1
      x_34 >= 0
 0 <= y_516 <= 1
 0 <= y_165 <= 1
      x_35 >= 0
 0 <= y_517 <= 1
 0 <= y_175 <= 1
      x_36 >= 0
 0 <= y_519 <= 1
 0 <= y_195 <= 1
      x_37 >= 0
 0 <= y_69 <= 1
 0 <= y_96 <= 1
      x_38 >= 0
 0 <= y_617 <= 1
 0 <= y_176 <= 1
      x_39 >= 0
 0 <= y_78 <= 1
 0 <= y_87 <= 1
      x_40 >= 0
 0 <= y_711 <= 1
 0 <= y_117 <= 1
      x_41 >= 0
 0 <= y_713 <= 1
 0 <= y_137 <= 1
      x_42 >= 0
 0 <= y_718 <= 1
 0 <= y_187 <= 1
      x_43 >= 0
 0 <= y_814 <= 1
 0 <= y_148 <= 1
      x_44 >= 0
 0 <= y_819 <= 1
 0 <= y_198 <= 1
      x_45 >= 0
 0 <= y_910 <= 1
 0 <= y_109 <= 1
      x_46 >= 0
 0 <= y_911 <= 1
 0 <= y_119 <= 1
      x_47 >= 0
 0 <= y_915 <= 1
 0 <= y_159 <= 1
      x_48 >= 0
 0 <= y_1016 <= 1
 0 <= y_1610 <= 1
      x_49 >= 0
 0 <= y_1017 <= 1
 0 <= y_1710 <= 1
      x_50 >= 0
 0 <= y_1116 <= 1
 0 <= y_1611 <= 1
      x_51 >= 0
 0 <= y_1118 <= 1
 0 <= y_1811 <= 1
      x_52 >= 0
 0 <= y_1315 <= 1
 0 <= y_1513 <= 1
      x_53 >= 0
 0 <= y_1318 <= 1
 0 <= y_1813 <= 1
      x_54 >= 0
 0 <= y_1518 <= 1
 0 <= y_1815 <= 1
      x_55 >= 0
 0 <= y_1519 <= 1
 0 <= y_1915 <= 1
      x_56 >= 0
 0 <= y_1520 <= 1
 0 <= y_2015 <= 1
      x_57 >= 0
 0 <= y_1617 <= 1
 0 <= y_1716 <= 1
      x_58 >= 0
 0 <= y_1619 <= 1
 0 <= y_1916 <= 1
      x_59 >= 0
 0 <= y_1719 <= 1
 0 <= y_1917 <= 1
      x_60 >= 0
 0 <= y_1720 <= 1
 0 <= y_2017 <= 1
      x_61 >= 0
 0 <= y_1819 <= 1
 0 <= y_1918 <= 1
      x_62 >= 0
 0 <= y_1820 <= 1
 0 <= y_2018 <= 1
      x_63 >= 0
 0 <= y_1920 <= 1
 0 <= y_2019 <= 1
      x_64 >= 0
 0 <= y_210 <= 1
 0 <= y_021 <= 1
      x_65 >= 0
 0 <= y_211 <= 1
 0 <= y_121 <= 1
      x_66 >= 0
 0 <= y_212 <= 1
 0 <= y_221 <= 1
      x_67 >= 0
 0 <= y_213 <= 1
 0 <= y_321 <= 1
      x_68 >= 0
 0 <= y_214 <= 1
 0 <= y_421 <= 1
      x_69 >= 0
 0 <= y_215 <= 1
 0 <= y_521 <= 1
      x_70 >= 0
 0 <= y_216 <= 1
 0 <= y_621 <= 1
      x_71 >= 0
 0 <= y_217 <= 1
 0 <= y_721 <= 1
      x_72 >= 0
 0 <= y_218 <= 1
 0 <= y_821 <= 1
      x_73 >= 0
 0 <= y_219 <= 1
 0 <= y_921 <= 1
      x_74 >= 0
 0 <= y_2110 <= 1
 0 <= y_1021 <= 1
      x_75 >= 0
 0 <= y_2111 <= 1
 0 <= y_1121 <= 1
      x_76 >= 0
 0 <= y_2112 <= 1
 0 <= y_1221 <= 1
      x_77 >= 0
 0 <= y_2113 <= 1
 0 <= y_1321 <= 1
      x_78 >= 0
 0 <= y_2114 <= 1
 0 <= y_1421 <= 1
      x_79 >= 0
 0 <= y_2115 <= 1
 0 <= y_1521 <= 1
      x_80 >= 0
 0 <= y_2116 <= 1
 0 <= y_1621 <= 1
      x_81 >= 0
 0 <= y_2117 <= 1
 0 <= y_1721 <= 1
      x_82 >= 0
 0 <= y_2118 <= 1
 0 <= y_1821 <= 1
      x_83 >= 0
 0 <= y_2119 <= 1
 0 <= y_1921 <= 1
      x_84 >= 0
 0 <= y_2120 <= 1
 0 <= y_2021 <= 1
      x_85 >= 0
      f_10 >= 0
      f_01 >= 0
      f_20 >= 0
      f_02 >= 0
      f_30 >= 0
      f_03 >= 0
      f_40 >= 0
      f_04 >= 0
      f_50 >= 0
      f_05 >= 0
      f_60 >= 0
      f_06 >= 0
      f_70 >= 0
      f_07 >= 0
      f_80 >= 0
      f_08 >= 0
      f_90 >= 0
      f_09 >= 0
      f_100 >= 0
      f_010 >= 0
      f_110 >= 0
      f_011 >= 0
      f_120 >= 0
      f_012 >= 0
      f_130 >= 0
      f_013 >= 0
      f_140 >= 0
      f_014 >= 0
      f_150 >= 0
      f_015 >= 0
      f_160 >= 0
      f_016 >= 0
      f_170 >= 0
      f_017 >= 0
      f_180 >= 0
      f_018 >= 0
      f_190 >= 0
      f_019 >= 0
      f_200 >= 0
      f_020 >= 0
      f_210 >= 0
      f_021 >= 0
      f_21 >= 0
      f_12 >= 0
      f_31 >= 0
      f_13 >= 0
      f_41 >= 0
      f_14 >= 0
      f_51 >= 0
      f_15 >= 0
      f_61 >= 0
      f_16 >= 0
      f_71 >= 0
      f_17 >= 0
      f_81 >= 0
      f_18 >= 0
      f_151 >= 0
      f_115 >= 0
      f_191 >= 0
      f_119 >= 0
      f_211 >= 0
      f_121 >= 0
      f_182 >= 0
      f_218 >= 0
      f_212 >= 0
      f_221 >= 0
      f_43 >= 0
      f_34 >= 0
      f_213 >= 0
      f_321 >= 0
      f_74 >= 0
      f_47 >= 0
      f_124 >= 0
      f_412 >= 0
      f_154 >= 0
      f_415 >= 0
      f_214 >= 0
      f_421 >= 0
      f_75 >= 0
      f_57 >= 0
      f_165 >= 0
      f_516 >= 0
      f_175 >= 0
      f_517 >= 0
      f_195 >= 0
      f_519 >= 0
      f_215 >= 0
      f_521 >= 0
      f_96 >= 0
      f_69 >= 0
      f_176 >= 0
      f_617 >= 0
      f_216 >= 0
      f_621 >= 0
      f_87 >= 0
      f_78 >= 0
      f_117 >= 0
      f_711 >= 0
      f_137 >= 0
      f_713 >= 0
      f_187 >= 0
      f_718 >= 0
      f_217 >= 0
      f_721 >= 0
      f_148 >= 0
      f_814 >= 0
      f_198 >= 0
      f_819 >= 0
      f_218 >= 0
      f_821 >= 0
      f_109 >= 0
      f_910 >= 0
      f_119 >= 0
      f_911 >= 0
      f_159 >= 0
      f_915 >= 0
      f_219 >= 0
      f_921 >= 0
      f_1610 >= 0
      f_1016 >= 0
      f_1710 >= 0
      f_1017 >= 0
      f_2110 >= 0
      f_1021 >= 0
      f_1611 >= 0
      f_1116 >= 0
      f_1811 >= 0
      f_1118 >= 0
      f_2111 >= 0
      f_1121 >= 0
      f_2112 >= 0
      f_1221 >= 0
      f_1513 >= 0
      f_1315 >= 0
      f_1813 >= 0
      f_1318 >= 0
      f_2113 >= 0
      f_1321 >= 0
      f_2114 >= 0
      f_1421 >= 0
      f_1815 >= 0
      f_1518 >= 0
      f_1915 >= 0
      f_1519 >= 0
      f_2015 >= 0
      f_1520 >= 0
      f_2115 >= 0
      f_1521 >= 0
      f_1716 >= 0
      f_1617 >= 0
      f_1916 >= 0
      f_1619 >= 0
      f_2116 >= 0
      f_1621 >= 0
      f_1917 >= 0
      f_1719 >= 0
      f_2017 >= 0
      f_1720 >= 0
      f_2117 >= 0
      f_1721 >= 0
      f_1918 >= 0
      f_1819 >= 0
      f_2018 >= 0
      f_1820 >= 0
      f_2118 >= 0
      f_1821 >= 0
      f_2019 >= 0
      f_1920 >= 0
      f_2119 >= 0
      f_1921 >= 0
      f_2120 >= 0
      f_2021 >= 0
Binaries
 y_01  y_10  y_02  y_20  y_03  y_30  y_04  y_40  y_05  y_50  y_06  y_60  y_07 
 y_70  y_08  y_80  y_09  y_90  y_010  y_100  y_011  y_110  y_012  y_120  y_013 
 y_130  y_014  y_140  y_015  y_150  y_016  y_160  y_017  y_170  y_018  y_180 
 y_019  y_190  y_020  y_200  y_12  y_21  y_13  y_31  y_14  y_41  y_15  y_51 
 y_16  y_61  y_17  y_71  y_18  y_81  y_115  y_151  y_119  y_191  y_218  y_182 
 y_34  y_43  y_47  y_74  y_412  y_124  y_415  y_154  y_57  y_75  y_516  y_165 
 y_517  y_175  y_519  y_195  y_69  y_96  y_617  y_176  y_78  y_87  y_711 
 y_117  y_713  y_137  y_718  y_187  y_814  y_148  y_819  y_198  y_910  y_109 
 y_911  y_119  y_915  y_159  y_1016  y_1610  y_1017  y_1710  y_1116  y_1611 
 y_1118  y_1811  y_1315  y_1513  y_1318  y_1813  y_1518  y_1815  y_1519 
 y_1915  y_1520  y_2015  y_1617  y_1716  y_1619  y_1916  y_1719  y_1917 
 y_1720  y_2017  y_1819  y_1918  y_1820  y_2018  y_1920  y_2019  y_210  y_021 
 y_211  y_121  y_212  y_221  y_213  y_321  y_214  y_421  y_215  y_521  y_216 
 y_621  y_217  y_721  y_218  y_821  y_219  y_921  y_2110  y_1021  y_2111 
 y_1121  y_2112  y_1221  y_2113  y_1321  y_2114  y_1421  y_2115  y_1521 
 y_2116  y_1621  y_2117  y_1721  y_2118  y_1821  y_2119  y_1921  y_2120 
 y_2021 
Generals
 x_0  x_1  x_2  x_3  x_4  x_5  x_6  x_7  x_8  x_9  x_10  x_11  x_12  x_13 
 x_14  x_15  x_16  x_17  x_18  x_19  x_20  x_21  x_22  x_23  x_24  x_25  x_26 
 x_27  x_28  x_29  x_30  x_31  x_32  x_33  x_34  x_35  x_36  x_37  x_38  x_39 
 x_40  x_41  x_42  x_43  x_44  x_45  x_46  x_47  x_48  x_49  x_50  x_51  x_52 
 x_53  x_54  x_55  x_56  x_57  x_58  x_59  x_60  x_61  x_62  x_63  x_64  x_65 
 x_66  x_67  x_68  x_69  x_70  x_71  x_72  x_73  x_74  x_75  x_76  x_77  x_78 
 x_79  x_80  x_81  x_82  x_83  x_84  x_85  f_10  f_01  f_20  f_02  f_30  f_03 
 f_40  f_04  f_50  f_05  f_60  f_06  f_70  f_07  f_80  f_08  f_90  f_09  f_100 
 f_010  f_110  f_011  f_120  f_012  f_130  f_013  f_140  f_014  f_150  f_015 
 f_160  f_016  f_170  f_017  f_180  f_018  f_190  f_019  f_200  f_020  f_210 
 f_021  f_21  f_12  f_31  f_13  f_41  f_14  f_51  f_15  f_61  f_16  f_71  f_17 
 f_81  f_18  f_151  f_115  f_191  f_119  f_211  f_121  f_182  f_218  f_212 
 f_221  f_43  f_34  f_213  f_321  f_74  f_47  f_124  f_412  f_154  f_415 
 f_214  f_421  f_75  f_57  f_165  f_516  f_175  f_517  f_195  f_519  f_215 
 f_521  f_96  f_69  f_176  f_617  f_216  f_621  f_87  f_78  f_117  f_711 
 f_137  f_713  f_187  f_718  f_217  f_721  f_148  f_814  f_198  f_819  f_218 
 f_821  f_109  f_910  f_119  f_911  f_159  f_915  f_219  f_921  f_1610  f_1016 
 f_1710  f_1017  f_2110  f_1021  f_1611  f_1116  f_1811  f_1118  f_2111 
 f_1121  f_2112  f_1221  f_1513  f_1315  f_1813  f_1318  f_2113  f_1321 
 f_2114  f_1421  f_1815  f_1518  f_1915  f_1519  f_2015  f_1520  f_2115 
 f_1521  f_1716  f_1617  f_1916  f_1619  f_2116  f_1621  f_1917  f_1719 
 f_2017  f_1720  f_2117  f_1721  f_1918  f_1819  f_2018  f_1820  f_2118 
 f_1821  f_2019  f_1920  f_2119  f_1921  f_2120  f_2021 
End
